/*********************************************
    * Lab01 - simple
    * Author: Coso
    * Creation Date: Mar, 2019
    *********************************************/
instance_name = "small_instance_02_simple";

d = 2;
r = 3;

SCj = [140 121];
Dk = [29 74 30];

Cjk = [[32 45 51]
 [41 50 61]];
